Input: ticf-13crafc.original.dzn
============================================================
Total Runtime: 5932.3348 seconds
Input parsing: 0.0011 seconds
Constraint building: 0.5649 seconds
MaxSAT solving: 5931.4050 seconds
============================================================

Total variables: 174986
Total clauses: 367154
MaxSAT found with cost: N/A
NO SOLUTION FOUND
